Version identifier: 22.1.0.0 | 2022-03-09 | 1a383f8ce
CPXPARAM_Threads                                 1
CPXPARAM_MIP_Strategy_VariableSelect             3
CPXPARAM_TimeLimit                               599.999972017
1 of 1 MIP starts provided solutions.
MIP start 'm1' defined initial solution with objective 3.0000.
Tried aggregator 1 time.
MIP Presolve eliminated 8 rows and 0 columns.
MIP Presolve modified 5 coefficients.
Reduced MIP has 2117 rows, 7500 columns, and 114611 nonzeros.
Reduced MIP has 7500 binaries, 0 generals, 0 SOSs, and 0 indicators.
Presolve time = 0.07 sec. (55.05 ticks)
Probing time = 0.01 sec. (7.39 ticks)
Tried aggregator 1 time.
Detecting symmetries...
Reduced MIP has 2117 rows, 7500 columns, and 114611 nonzeros.
Reduced MIP has 7500 binaries, 0 generals, 0 SOSs, and 0 indicators.
Presolve time = 0.08 sec. (59.37 ticks)
Probing time = 0.01 sec. (7.39 ticks)
Clique table members: 602.
MIP emphasis: balance optimality and feasibility.
MIP search method: dynamic search.
Parallel mode: none, using 1 thread.
Root relaxation solution time = 1.56 sec. (1686.87 ticks)

        Nodes                                         Cuts/
   Node  Left     Objective  IInf  Best Integer    Best Bound    ItCnt     Gap

*     0+    0                            3.0000     7500.0000              --- 
      0     0      300.0000  1144        3.0000      300.0000     5082     --- 
*     0+    0                          296.0000      300.0000             1.35%
*     0+    0                          298.0000      300.0000             0.67%
*     0+    0                          300.0000      300.0000             0.00%
      0     0        cutoff            300.0000      300.0000     5082    0.00%
      0     0        cutoff            300.0000      300.0000     5082    0.00%
Elapsed time = 17.21 sec. (21138.59 ticks, tree = 0.01 MB, solutions = 4)

Root node processing (before b&c):
  Real time             =   17.21 sec. (21138.97 ticks)
Sequential b&c:
  Real time             =    0.00 sec. (0.00 ticks)
                          ------------
Total (root+branch&cut) =   17.21 sec. (21138.97 ticks)
Primal:	300
Dual:	300
Status:	Optimal
Time:	17.26
Sequence:
	20
	24
	14
	9
	21
	13
	22
	14
	24
	21
	22
	14
	13
	6
	8
	10
	19
	10
	9
	21
	13
	21
	9
	10
	12
	7
	8
	14
	24
	20
	9
	16
	14
	13
	11
	13
	21
	16
	1
	13
	10
	16
	15
	0
	10
	24
	15
	16
	7
	23
	17
	13
	14
	24
	11
	16
	6
	8
	13
	10
	16
	2
	12
	20
	24
	17
	13
	14
	24
	1
	12
	6
	16
	11
	13
	21
	13
	17
	24
	7
	19
	11
	19
	13
	11
	19
	20
	19
	11
	24
	16
	20
	3
	10
	13
	14
	9
	14
	13
	11
	19
	11
	19
	6
	23
	15
	13
	16
	10
	2
	14
	13
	21
	22
	21
	24
	15
	13
	23
	5
	9
	21
	23
	23
	15
	24
	14
	24
	17
	24
	21
	24
	22
	4
	23
	14
	9
	20
	16
	21
	2
	10
	23
	21
	8
	10
	24
	14
	2
	14
	23
	2
	16
	10
	19
	11
	24
	14
	23
	15
	13
	23
	17
	13
	21
	13
	11
	12
	6
	16
	11
	13
	14
	2
	21
	13
	17
	9
	6
	16
	1
	19
	10
	2
	16
	6
	16
	11
	19
	20
	9
	14
	13
	15
	24
	7
	19
	11
	16
	7
	9
	14
	13
	5
	22
	21
	13
	11
	16
	6
	16
	11
	24
	12
	20
	3
	10
	13
	14
	2
	12
	6
	22
	16
	6
	8
	6
	23
	21
	9
	5
	24
	11
	16
	21
	13
	11
	16
	6
	16
	18
	16
	10
	13
	17
	24
	14
	13
	11
	16
	21
	2
	10
	16
	13
	15
	23
	10
	19
	11
	16
	6
	13
	15
	16
	10
	13
	11
	19
	21
	13
	2
	10
	16
	21
	9
	10
	13
	16
	17
	24
	20
	13
	8
	12
	6
	22
	6
	12
	14
	2
	14
	9
	10
	16
	21
	22
	7
	16
	10
